N = 21;
M = 45;
Edge_Start = [1, 1, 2, 2, 2, 3, 3, 3, 4, 5, 5, 5, 6, 6, 6, 7, 7, 8, 8, 9, 9, 9, 10, 10, 10, 11, 12, 12, 12, 13, 13, 13, 14, 14, 15, 15, 16, 16, 16, 17, 17, 17, 18, 19, 20];
Edge_End = [2, 5, 3, 5, 6, 4, 6, 7, 7, 6, 8, 9, 7, 9, 10, 10, 11, 9, 12, 10, 12, 13, 11, 13, 14, 14, 13, 15, 16, 14, 16, 17, 17, 18, 16, 19, 17, 19, 20, 18, 20, 21, 21, 20, 21];
L = [5, 5, 2, 5, 5, 2, 2, 2, 3, 2, 3, 3, 2, 3, 2, 4, 4, 5, 3, 4, 5, 4, 5, 3, 2, 5, 3, 3, 3, 3, 3, 2, 4, 2, 2, 4, 3, 2, 3, 5, 5, 4, 5, 3, 3];
T = [9, 3, 6, 4, 7, 0, 3, 2, 4, 5, 7, 8, 3, 1, 3, 5, 8, 5, 5, 6, 9, 7, 5, 2, 3, 5, 2, 5, 2, 8, 8, 2, 2, 5, 2, 6, 2, 3, 7, 3, 10, 2, 10, 3, 5];
Lower_Bound = [1, 0, 4, 2, 5, 1, 0, 3, 1, 1, 2, 3, 2, 1, 0, 2, 0, 2, 5, 5, 2];
Upper_Bound = [22, 42, 51, 65, 47, 64, 71, 66, 73, 84, 93, 86, 88, 102, 95, 103, 105, 109, 106, 116, 122];
Start = 1;
End = 21;
Time = 212;
